36
62
29
40
35
25
32
50
42
0
51
20
23
80
205
46
58
33
46
27
33
64
29
29
24
42
35
62
58
98
71
38
41
31
38
26
25
0
42
29
33
78
49
0
33
51
40
49
40
158
31
33
46
49
38
33
0
38
0
36
69
59
44
129
81
53
31
30
32
31
126
91
39
97
25
43
52
0
24
38
53
40
40
54
34
0
101
32
59
0
41
38
27
26
57
22
0
36
34
24
